ITEM = 1..13;
capacity1 = 188;
capacity2 = 185;
capacity3 = 209;
profits = [325, 436, 534, 999, 414, 602, 979, 884, 587, 142, 60, 888, 478];
weights = [54, 32, 27, 12, 89, 87, 77, 75, 65, 32, 85, 49, 16];
